db/data/298079698133022701514267273652568226812.z3.out
-------------------
2500.077706230
